100
30
23
12
11
23
28
4
14
2
1
13
4
24
6
25
15
13
6
5
1
13
29
8
13
27
15
14
5
32
26
7
25
13
4
2
28
10
3
32
20
26
19
11
8
30
9
3
25
17
22
19
31
17
21
3
20
28
27
2
29
29
21
1
14
16
7
7
18
19
24
27
24
21
19
7
9
17
20
10
3
6
23
27
22
10
20
15
6
3
28
23
3
23
8
26
3
17
27
26
6
25